units real
atom_style full
pair_style hybrid/overlay lj/cut/coul/debye 0.2 10.0 12.0 morse 10.0
bond_style hybrid harmonic
angle_style hybrid harmonic
dihedral_style hybrid opls
improper_style hybrid cvff
special_bonds amber
dielectric 24.35
